unsat
(:cnf-encoding-aux-vars   125
 :eliminated-applications 3
 :eliminated-vars         148
 :max-memory              20.72
 :memory                  18.92
 :nlsat-conflicts         165
 :nlsat-decisions         1311
 :nlsat-propagations      5061
 :num-allocs              2693424
 :rlimit-count            226489
 :time                    0.18
 :total-time              0.20)
